# Objective value = 9
e(1,1,8) 0
e(1,2,9) 0
e(1,3,10) 0
e(2,2,2) 0
e(2,2,3) 0
e(2,2,4) 0
e(2,2,5) 0
e(2,2,6) 0
e(2,3,8) 0
e(2,1,9) 0
e(3,1,2) 0
e(3,3,2) 0
e(3,1,3) 0
e(3,3,3) 0
e(3,1,4) 0
e(3,3,4) 0
e(3,1,5) 0
e(3,3,5) 0
e(3,1,6) 0
e(3,3,6) 0
e(3,2,7) 0
e(3,3,7) 0
C 9
f(1,1) 1
f(2,1) 1
x(2,2,1) 0
f(3,1) 1
x(3,1,1) 0
x(3,3,1) 0
x(1,1,1) 0
x(1,3,1) 0
f(1,2) 0
x(1,1,2) 0
x(1,2,2) 0
x(1,3,2) 1
x(1,2,1) 0
f(1,3) 1
x(1,1,3) 0
x(1,2,3) 0
x(1,3,3) 0
f(1,4) 0
x(1,1,4) 0
x(1,2,4) 0
x(1,3,4) 1
f(1,5) 0
x(1,1,5) 0
x(1,2,5) 0
x(1,3,5) 1
f(1,6) 0
x(1,1,6) 0
x(1,2,6) 1
x(1,3,6) 0
f(1,7) 0
x(1,1,7) 0
x(1,2,7) 0
x(1,3,7) 0
f(1,8) 1
x(1,1,8) 0
x(1,2,8) 0
x(1,3,8) 0
f(1,9) 0
x(1,1,9) 1
x(1,2,9) 0
x(1,3,9) 0
f(1,10) 1
x(1,1,10) 0
x(1,2,10) 0
x(1,3,10) 0
f(2,2) 0
x(2,1,2) 0
x(2,2,2) 0
x(2,3,2) 1
x(2,1,1) 0
x(2,3,1) 0
f(2,3) 0
x(2,1,3) 0
x(2,2,3) 0
x(2,3,3) 0
f(2,4) 0
x(2,1,4) 1
x(2,2,4) 0
x(2,3,4) 0
f(2,5) 0
x(2,1,5) 0
x(2,2,5) 0
x(2,3,5) 0
f(2,6) 1
x(2,1,6) 0
x(2,2,6) 0
x(2,3,6) 0
f(2,7) 0
x(2,1,7) 0
x(2,2,7) 1
x(2,3,7) 0
f(2,8) 0
x(2,1,8) 0
x(2,2,8) 1
x(2,3,8) 0
f(2,9) 0
x(2,1,9) 0
x(2,2,9) 0
x(2,3,9) 1
f(2,10) 0
x(2,1,10) 0
x(2,2,10) 0
x(2,3,10) 0
f(3,2) 1
x(3,1,2) 0
x(3,2,2) 0
x(3,3,2) 0
x(3,2,1) 0
f(3,3) 1
x(3,1,3) 0
x(3,2,3) 0
x(3,3,3) 0
f(3,4) 1
x(3,1,4) 0
x(3,2,4) 0
x(3,3,4) 0
f(3,5) 1
x(3,1,5) 0
x(3,2,5) 0
x(3,3,5) 0
f(3,6) 0
x(3,1,6) 1
x(3,2,6) 0
x(3,3,6) 0
f(3,7) 0
x(3,1,7) 0
x(3,2,7) 0
x(3,3,7) 0
f(3,8) 0
x(3,1,8) 0
x(3,2,8) 1
x(3,3,8) 0
f(3,9) 0
x(3,1,9) 0
x(3,2,9) 0
x(3,3,9) 0
f(3,10) 0
x(3,1,10) 0
x(3,2,10) 0
x(3,3,10) 1
e(3,1,1) 1
e(2,2,1) 1
e(3,3,1) 1
e(1,1,3) 1
e(1,1,4) 1
e(1,1,5) 1
e(1,1,6) 1
e(1,1,7) 1
e(3,2,2) 1
e(3,2,3) 1
e(3,2,4) 1
e(3,2,5) 1
e(3,2,6) 1
e(2,3,2) 0
e(2,3,3) 0
e(2,3,4) 0
e(2,3,5) 0
e(2,3,6) 0
e(2,1,4) 0
e(2,1,5) 0
e(2,1,6) 0
e(2,1,7) 0
e(1,2,4) 1
e(1,2,5) 1
e(1,2,6) 0
e(1,2,7) 0
e(1,2,8) 0
e(1,3,4) 1
e(1,3,5) 0
e(1,3,6) 0
e(1,3,7) 0
e(1,3,8) 0
e(1,3,9) 0
e(2,3,7) 0
e(2,1,8) 0
